p edge 200 593
1 115
1 2
1 122
2 125
2 13
2 3
3 167
3 56
3 4
4 180
4 175
4 5
5 34
5 168
5 6
6 54
6 7
6 86
7 91
7 8
7 70
8 9
8 197
8 26
9 5
9 3
9 10
10 105
10 188
10 11
11 2
11 12
11 23
12 13
12 94
12 160
13 176
13 183
13 14
14 15
14 169
14 143
15 125
15 16
15 180
16 94
16 17
16 197
17 18
17 194
17 12
18 144
18 19
18 122
19 64
19 178
19 20
20 132
20 21
20 191
21 47
21 43
21 22
22 23
22 67
22 110
23 24
23 10
24 104
24 25
24 31
25 182
25 162
25 26
26 27
26 143
27 190
27 28
27 74
28 29
28 160
28 15
29 166
29 30
29 26
30 38
30 31
30 14
31 43
31 35
31 32
32 178
32 192
32 33
33 34
33 146
33 138
34 35
34 108
34 16
35 36
35 134
35 196
36 83
36 37
36 169
37 179
37 167
37 38
38 39
38 35
38 131
39 40
39 178
39 170
40 41
40 72
40 129
41 165
41 42
41 174
42 71
42 43
42 109
43 198
43 154
43 44
44 77
44 45
44 142
45 145
45 38
45 46
46 47
46 177
46 186
47 48
47 31
47 14
48 49
48 43
48 110
49 50
49 76
49 16
50 127
50 73
50 51
51 182
51 52
51 139
52 53
52 45
52 143
53 54
53 41
53 185
54 55
54 93
54 144
55 56
55 162
55 144
56 57
56 166
56 78
57 58
57 189
57 176
58 39
58 59
58 34
59 60
59 178
59 38
60 61
60 34
60 140
61 94
61 10
61 62
62 152
62 63
62 43
63 6
63 64
63 20
64 197
64 98
64 65
65 38
65 66
65 10
66 67
66 143
66 15
67 122
67 141
67 68
68 69
68 137
68 199
69 131
69 28
69 70
70 71
70 162
70 116
71 72
71 91
71 12
72 73
72 12
72 197
73 157
73 194
73 74
74 174
74 75
74 36
75 76
75 154
75 107
76 73
76 77
76 32
77 28
77 78
77 57
78 177
78 114
78 79
79 80
79 78
79 58
80 115
80 81
80 65
81 5
81 82
81 109
82 83
82 126
82 85
83 11
83 141
83 84
84 85
84 156
84 172
85 86
85 8
85 90
86 126
86 3
86 87
87 88
87 93
87 51
88 179
88 89
88 117
89 28
89 107
89 90
90 183
90 91
90 168
91 158
91 92
91 122
92 93
92 89
92 167
93 97
93 94
93 104
94 8
94 95
94 79
95 133
95 24
95 96
96 142
96 97
96 58
97 27
97 98
98 15
98 99
98 62
99 163
99 100
99 104
100 117
100 101
100 102
101 25
101 102
101 12
102 103
102 170
102 134
103 104
103 91
103 38
104 189
104 87
104 105
105 83
105 168
105 106
106 33
106 188
106 107
107 147
107 108
107 74
108 30
108 109
109 110
109 122
109 25
110 108
110 129
110 111
111 112
111 123
111 52
112 155
112 49
112 113
113 118
113 197
113 114
114 10
114 115
114 68
115 99
115 56
115 116
116 63
116 28
116 117
117 149
117 128
117 118
118 134
118 119
118 192
119 120
119 86
119 131
120 133
120 121
120 152
121 10
121 122
121 2
122 136
122 123
122 178
123 124
123 69
123 15
124 104
124 163
124 125
125 126
125 79
125 53
126 200
126 103
126 127
127 167
127 128
128 55
128 163
128 129
129 130
129 28
129 45
130 131
130 74
130 1
131 132
131 10
131 73
132 74
132 133
132 129
133 68
133 169
133 134
134 52
134 135
134 130
135 79
135 136
135 66
136 192
136 12
136 137
137 173
137 15
137 138
138 139
138 63
138 133
139 140
139 133
139 22
140 36
140 168
140 141
141 142
141 78
141 54
142 143
142 32
142 24
143 7
143 6
143 144
144 177
144 59
144 145
145 113
145 124
145 146
146 126
146 147
147 189
147 17
147 148
148 149
148 44
148 153
149 150
149 38
149 48
150 137
150 151
150 5
151 168
151 152
151 116
152 112
152 60
152 153
153 154
153 197
153 170
154 133
154 155
154 94
155 199
155 63
155 156
156 97
156 157
156 98
157 40
157 163
157 158
158 159
158 179
158 83
159 156
159 102
159 160
160 46
160 184
160 161
161 162
161 89
161 151
162 23
162 51
162 163
163 189
163 164
163 33
164 11
164 165
164 89
165 166
165 19
165 187
166 20
166 189
166 167
167 54
167 46
167 168
168 169
168 88
168 32
169 152
169 184
169 170
170 171
170 131
170 102
171 165
171 172
171 15
172 142
172 31
172 173
173 72
173 174
173 194
174 175
174 26
174 51
175 6
175 176
175 120
176 177
176 93
176 141
177 126
177 178
177 170
178 152
178 179
178 84
179 120
179 180
179 20
180 183
180 181
180 135
181 152
181 182
181 40
182 183
182 9
182 170
183 184
183 137
183 11
184 85
184 185
184 120
185 186
185 48
185 74
186 124
186 187
186 130
187 188
187 26
187 138
188 189
188 11
188 182
189 167
189 190
189 195
190 170
190 191
190 7
191 26
191 192
191 61
192 193
192 128
192 178
193 73
193 191
193 194
194 195
194 50
194 191
195 50
195 196
195 146
196 163
196 197
196 35
197 198
197 31
198 182
198 199
198 191
199 200
199 54
199 83
200 123
200 1
200 177
